SECTION Graph
Nodes 743
Edges 1409
E 1 10 18
E 1 13 1
E 1 558 3
E 2 14 1
E 2 557 2
E 2 559 3
E 3 575 1
E 3 576 1
E 4 251 18
E 4 558 6
E 4 566 1
E 4 574 5
E 5 561 6
E 5 566 2
E 6 476 3
E 6 482 1
E 6 485 1
E 6 489 6
E 7 489 5
E 7 496 1
E 8 482 6
E 8 489 1
E 9 251 34
E 9 485 6
E 9 489 1
E 9 496 5
E 10 250 3
E 10 479 34
E 10 533 1
E 11 253 2
E 12 37 5
E 12 537 1
E 12 541 1
E 12 542 2
E 13 14 1
E 13 533 18
E 13 548 2
E 14 549 2
E 14 555 2
E 15 515 18
E 15 539 5
E 15 545 1
E 15 546 6
E 16 544 5
E 16 545 2
E 16 551 6
E 16 634 116
E 17 41 7
E 17 654 1
E 18 652 16
E 18 655 5
E 19 21 1
E 19 30 5
E 19 632 1
E 19 648 28
E 20 642 1
E 20 643 1
E 20 652 28
E 21 23 1
E 21 32 5
E 21 631 1
E 22 24 1
E 22 638 4
E 22 642 1
E 22 643 1
E 23 34 5
E 23 542 116
E 23 630 1
E 24 551 116
E 24 637 4
E 24 641 1
E 25 43 7
E 25 449 1
E 25 453 1
E 25 459 5
E 26 459 6
E 26 469 1
E 26 472 1
E 26 476 4
E 27 449 5
E 27 459 1
E 27 469 6
E 28 453 5
E 28 459 1
E 28 472 6
E 28 515 34
E 29 618 2
E 29 620 1
E 29 621 1
E 30 32 1
E 30 629 1
E 30 646 28
E 31 33 1
E 31 620 1
E 31 621 1
E 31 624 6
E 32 34 1
E 32 628 1
E 33 513 116
E 33 619 1
E 33 623 6
E 34 534 116
E 34 627 1
E 35 36 1
E 35 47 1
E 35 503 2
E 36 48 1
E 36 506 2
E 36 507 2
E 37 529 1
E 37 530 1
E 37 534 2
E 38 488 18
E 38 508 6
E 38 519 1
E 38 527 5
E 39 513 6
E 39 519 2
E 39 532 5
E 39 623 116
E 40 52 5
E 40 647 1
E 40 650 12
E 41 647 12
E 41 650 1
E 42 60 7
E 42 425 1
E 42 428 1
E 42 430 6
E 43 430 5
E 43 432 1
E 43 436 1
E 44 425 6
E 44 430 1
E 44 432 5
E 45 428 6
E 45 430 1
E 45 436 5
E 45 488 34
E 46 71 5
E 46 478 1
E 46 484 2
E 46 487 6
E 47 48 1
E 47 493 2
E 48 495 2
E 48 502 2
E 49 478 6
E 49 487 1
E 49 490 6
E 50 484 6
E 50 487 2
E 50 498 6
E 50 606 116
E 51 75 7
E 51 640 1
E 51 644 12
E 52 640 12
E 52 644 1
E 53 55 1
E 53 64 5
E 53 608 6
E 54 611 1
E 54 612 1
E 54 616 2
E 55 57 1
E 55 66 5
E 55 607 6
E 56 58 1
E 56 607 6
E 56 611 1
E 56 612 1
E 57 68 5
E 57 484 116
E 57 606 6
E 58 498 116
E 58 606 6
E 58 610 1
E 59 77 7
E 59 399 1
E 59 402 1
E 59 407 5
E 60 407 6
E 60 417 1
E 60 420 1
E 61 399 5
E 61 407 1
E 61 417 6
E 62 402 5
E 62 407 1
E 62 420 6
E 63 596 2
E 63 598 1
E 63 599 1
E 64 66 1
E 64 603 6
E 65 67 1
E 65 598 1
E 65 599 1
E 65 602 6
E 66 68 1
E 66 602 6
E 67 455 116
E 67 597 1
E 67 601 6
E 68 473 116
E 68 601 6
E 69 70 1
E 69 81 1
E 69 444 2
E 70 82 1
E 70 446 2
E 70 447 2
E 71 461 6
E 71 470 1
E 71 473 2
E 72 448 6
E 72 461 1
E 72 470 6
E 73 455 6
E 73 461 2
E 73 473 6
E 73 601 116
E 74 86 5
E 74 626 1
E 74 633 12
E 75 626 12
E 75 633 1
E 76 94 7
E 76 377 1
E 76 380 1
E 76 382 6
E 77 382 5
E 77 384 1
E 77 388 1
E 78 377 6
E 78 382 1
E 78 384 5
E 79 380 6
E 79 382 1
E 79 388 5
E 80 105 5
E 80 423 1
E 80 427 2
E 80 429 6
E 81 82 1
E 81 434 2
E 82 435 2
E 82 443 2
E 83 423 6
E 83 429 1
E 83 431 6
E 84 427 6
E 84 429 2
E 84 438 6
E 84 584 116
E 85 109 7
E 85 609 1
E 85 622 12
E 86 609 12
E 86 622 1
E 87 89 1
E 87 98 5
E 87 586 6
E 88 589 1
E 88 590 1
E 88 594 2
E 89 91 1
E 89 100 5
E 89 585 6
E 90 92 1
E 90 585 6
E 90 589 1
E 90 590 1
E 91 102 5
E 91 427 116
E 91 584 6
E 92 438 116
E 92 584 6
E 92 588 1
E 93 111 7
E 93 360 1
E 93 363 1
E 93 365 5
E 94 365 6
E 94 369 1
E 94 372 1
E 95 360 5
E 95 365 1
E 95 369 6
E 96 363 5
E 96 365 1
E 96 372 6
E 97 571 2
E 97 573 1
E 97 577 1
E 98 100 1
E 98 581 6
E 99 101 1
E 99 573 1
E 99 577 1
E 99 580 6
E 100 102 1
E 100 580 6
E 101 403 116
E 101 572 1
E 101 579 6
E 102 421 116
E 102 579 6
E 103 104 1
E 103 115 1
E 103 394 2
E 104 116 1
E 104 396 2
E 104 397 2
E 105 409 6
E 105 418 1
E 105 421 2
E 106 398 6
E 106 409 1
E 106 418 6
E 107 403 6
E 107 409 2
E 107 421 6
E 107 579 116
E 108 120 5
E 108 604 1
E 108 605 12
E 109 604 12
E 109 605 1
E 110 128 7
E 110 342 1
E 110 344 1
E 110 346 6
E 111 346 5
E 111 348 1
E 111 352 1
E 112 342 6
E 112 346 1
E 112 348 5
E 113 344 6
E 113 346 1
E 113 352 5
E 114 139 5
E 114 375 1
E 114 379 2
E 114 381 6
E 115 116 1
E 115 386 2
E 116 387 2
E 116 393 2
E 117 375 6
E 117 381 1
E 117 383 6
E 118 379 6
E 118 381 2
E 118 389 6
E 118 553 116
E 119 143 7
E 119 587 1
E 119 600 12
E 120 587 12
E 120 600 1
E 121 123 1
E 121 132 5
E 121 556 6
E 122 563 1
E 122 564 1
E 122 569 2
E 123 125 1
E 123 134 5
E 123 554 6
E 124 126 1
E 124 554 6
E 124 563 1
E 124 564 1
E 125 136 5
E 125 379 116
E 125 553 6
E 126 389 116
E 126 553 6
E 126 562 1
E 127 145 7
E 127 330 1
E 127 333 1
E 127 335 5
E 128 335 6
E 128 337 1
E 128 339 1
E 129 330 5
E 129 335 1
E 129 337 6
E 130 333 5
E 130 335 1
E 130 339 6
E 131 524 2
E 131 526 1
E 131 531 1
E 132 134 1
E 132 540 6
E 133 135 1
E 133 526 1
E 133 531 1
E 133 538 6
E 134 136 1
E 134 538 6
E 135 364 116
E 135 525 1
E 135 536 6
E 136 373 116
E 136 536 6
E 137 138 1
E 137 149 1
E 137 356 2
E 138 150 1
E 138 357 2
E 138 358 2
E 139 366 6
E 139 370 1
E 139 373 2
E 140 359 6
E 140 366 1
E 140 370 6
E 141 364 6
E 141 366 2
E 141 373 6
E 141 536 116
E 142 154 5
E 142 582 1
E 142 583 12
E 143 582 12
E 143 583 1
E 144 162 7
E 144 312 1
E 144 314 1
E 144 316 6
E 145 316 5
E 145 318 1
E 145 322 1
E 146 312 6
E 146 316 1
E 146 318 5
E 147 314 6
E 147 316 1
E 147 322 5
E 148 173 5
E 148 341 1
E 148 343 2
E 148 345 6
E 149 150 1
E 149 350 2
E 150 351 2
E 150 355 2
E 151 341 6
E 151 345 1
E 151 347 6
E 152 343 6
E 152 345 2
E 152 353 6
E 152 500 116
E 153 177 7
E 153 560 1
E 153 578 12
E 154 560 12
E 154 578 1
E 155 157 1
E 155 166 5
E 155 505 6
E 156 516 1
E 156 517 1
E 156 522 2
E 157 159 1
E 157 168 5
E 157 501 6
E 158 160 1
E 158 501 6
E 158 516 1
E 158 517 1
E 159 170 5
E 159 343 116
E 159 500 6
E 160 353 116
E 160 500 6
E 160 514 1
E 161 179 7
E 161 300 1
E 161 303 1
E 161 305 5
E 162 305 6
E 162 307 1
E 162 309 1
E 163 300 5
E 163 305 1
E 163 307 6
E 164 303 5
E 164 305 1
E 164 309 6
E 165 466 2
E 165 468 1
E 165 471 1
E 166 168 1
E 166 483 6
E 167 169 1
E 167 468 1
E 167 471 1
E 167 480 6
E 168 170 1
E 168 480 6
E 169 334 116
E 169 467 1
E 169 477 6
E 170 340 116
E 170 477 6
E 171 172 1
E 171 183 1
E 171 326 2
E 172 184 1
E 172 327 2
E 172 328 2
E 173 336 6
E 173 338 1
E 173 340 2
E 174 329 6
E 174 336 1
E 174 338 6
E 175 334 6
E 175 336 2
E 175 340 6
E 175 477 116
E 176 188 5
E 176 543 1
E 176 550 12
E 177 543 12
E 177 550 1
E 178 196 7
E 178 282 1
E 178 284 1
E 178 286 6
E 179 286 5
E 179 288 1
E 179 292 1
E 180 282 6
E 180 286 1
E 180 288 5
E 181 284 6
E 181 286 1
E 181 292 5
E 182 207 5
E 182 311 1
E 182 313 2
E 182 315 6
E 183 184 1
E 183 320 2
E 184 321 2
E 184 325 2
E 185 311 6
E 185 315 1
E 185 317 6
E 186 313 6
E 186 315 2
E 186 323 6
E 186 441 116
E 187 211 7
E 187 512 1
E 187 535 12
E 188 512 12
E 188 535 1
E 189 191 1
E 189 200 5
E 189 445 6
E 190 457 1
E 190 458 1
E 190 464 2
E 191 193 1
E 191 202 5
E 191 442 6
E 192 194 1
E 192 442 6
E 192 457 1
E 192 458 1
E 193 204 5
E 193 313 116
E 193 441 6
E 194 323 116
E 194 441 6
E 194 456 1
E 195 213 7
E 195 270 1
E 195 273 1
E 195 275 5
E 196 275 6
E 196 277 1
E 196 279 1
E 197 270 5
E 197 275 1
E 197 277 6
E 198 273 5
E 198 275 1
E 198 279 6
E 199 414 2
E 199 416 1
E 199 419 1
E 200 202 1
E 200 426 6
E 201 203 1
E 201 416 1
E 201 419 1
E 201 424 6
E 202 204 1
E 202 424 6
E 203 304 116
E 203 415 1
E 203 422 6
E 204 310 116
E 204 422 6
E 205 206 1
E 205 217 1
E 205 296 2
E 206 218 1
E 206 297 2
E 206 298 2
E 207 306 6
E 207 308 1
E 207 310 2
E 208 299 6
E 208 306 1
E 208 308 6
E 209 304 6
E 209 306 2
E 209 310 6
E 209 422 116
E 210 222 5
E 210 486 1
E 210 497 12
E 211 486 12
E 211 497 1
E 212 230 7
E 212 262 1
E 212 263 1
E 212 264 6
E 213 264 5
E 213 265 1
E 213 266 1
E 214 262 6
E 214 264 1
E 214 265 5
E 215 263 6
E 215 264 1
E 215 266 5
E 216 240 5
E 216 281 1
E 216 283 2
E 216 285 6
E 217 218 1
E 217 290 2
E 218 291 2
E 218 295 2
E 219 281 6
E 219 285 1
E 219 287 6
E 220 283 6
E 220 285 2
E 220 293 6
E 220 391 116
E 221 244 7
E 221 454 1
E 221 475 12
E 222 454 12
E 222 475 1
E 223 225 1
E 223 234 5
E 223 395 6
E 224 405 1
E 224 406 1
E 224 412 2
E 225 227 1
E 225 236 5
E 225 392 6
E 226 228 1
E 226 392 6
E 226 405 1
E 226 406 1
E 227 238 5
E 227 283 116
E 227 391 6
E 228 293 116
E 228 391 6
E 228 404 1
E 229 246 7
E 229 257 1
E 229 258 1
E 229 259 5
E 230 259 6
E 230 260 1
E 230 261 1
E 231 257 5
E 231 259 1
E 231 260 6
E 232 258 5
E 232 259 1
E 232 261 6
E 233 368 1
E 233 371 1
E 234 236 1
E 234 378 6
E 235 237 1
E 235 368 1
E 235 371 1
E 235 376 6
E 236 238 1
E 236 376 6
E 237 274 116
E 237 367 1
E 237 374 6
E 238 280 116
E 238 374 6
E 239 267 2
E 240 276 6
E 240 278 1
E 240 280 2
E 241 269 6
E 241 276 1
E 241 278 6
E 242 274 6
E 242 276 2
E 242 280 6
E 242 374 116
E 243 437 12
E 244 437 1
E 245 254 6
E 246 254 5
E 246 255 1
E 246 256 1
E 247 254 1
E 247 255 5
E 248 254 1
E 248 256 5
E 249 639 28
E 249 649 7
E 249 651 4
E 249 655 16
E 250 251 6
E 250 485 34
E 250 558 18
E 251 252 5
E 252 253 1
E 252 496 34
E 252 574 18
E 253 576 18
E 255 257 7
E 256 258 7
E 260 262 7
E 261 263 7
E 265 270 7
E 266 273 7
E 267 268 1
E 267 269 1
E 268 271 1
E 268 272 2
E 269 271 1
E 271 274 2
E 271 276 6
E 272 274 1
E 272 367 116
E 277 282 7
E 278 281 5
E 279 284 7
E 280 283 5
E 285 289 6
E 287 289 1
E 287 290 1
E 288 300 7
E 289 291 1
E 289 293 2
E 290 291 1
E 291 294 2
E 292 303 7
E 293 294 1
E 294 295 2
E 294 404 116
E 295 297 1
E 295 408 116
E 296 298 1
E 296 299 1
E 297 302 2
E 297 411 116
E 298 301 1
E 298 302 2
E 299 301 1
E 301 304 2
E 301 306 6
E 302 304 1
E 302 415 116
E 307 312 7
E 308 311 5
E 309 314 7
E 310 313 5
E 315 319 6
E 317 319 1
E 317 320 1
E 318 330 7
E 319 321 1
E 319 323 2
E 320 321 1
E 321 324 2
E 322 333 7
E 323 324 1
E 324 325 2
E 324 456 116
E 325 327 1
E 325 460 116
E 326 328 1
E 326 329 1
E 327 332 2
E 327 463 116
E 328 331 1
E 328 332 2
E 329 331 1
E 331 334 2
E 331 336 6
E 332 334 1
E 332 467 116
E 337 342 7
E 338 341 5
E 339 344 7
E 340 343 5
E 345 349 6
E 347 349 1
E 347 350 1
E 348 360 7
E 349 351 1
E 349 353 2
E 350 351 1
E 351 354 2
E 352 363 7
E 353 354 1
E 354 355 2
E 354 514 116
E 355 357 1
E 355 518 116
E 356 358 1
E 356 359 1
E 357 362 2
E 357 521 116
E 358 361 1
E 358 362 2
E 359 361 1
E 361 364 2
E 361 366 6
E 362 364 1
E 362 525 116
E 367 368 1
E 369 377 7
E 370 375 5
E 371 378 6
E 372 380 7
E 373 379 5
E 374 376 1
E 376 378 1
E 381 385 6
E 383 385 1
E 383 386 1
E 384 399 7
E 385 387 1
E 385 389 2
E 386 387 1
E 387 390 2
E 388 402 7
E 389 390 1
E 390 393 2
E 390 562 116
E 391 392 1
E 392 395 1
E 393 396 1
E 393 565 116
E 394 397 1
E 394 398 1
E 395 405 6
E 396 401 2
E 396 568 116
E 397 400 1
E 397 401 2
E 398 400 1
E 400 403 2
E 400 409 6
E 401 403 1
E 401 572 116
E 404 406 1
E 404 408 2
E 406 410 2
E 408 410 1
E 408 411 1
E 410 412 1
E 410 413 1
E 411 413 1
E 411 415 2
E 412 414 1
E 413 414 1
E 413 416 2
E 415 416 1
E 417 425 7
E 418 423 5
E 419 426 6
E 420 428 7
E 421 427 5
E 422 424 1
E 424 426 1
E 428 481 34
E 429 433 6
E 431 433 1
E 431 434 1
E 432 449 7
E 433 435 1
E 433 438 2
E 434 435 1
E 435 440 2
E 436 439 1
E 436 491 34
E 437 454 7
E 438 440 1
E 439 451 5
E 439 494 34
E 440 443 2
E 440 588 116
E 441 442 1
E 442 445 1
E 443 446 1
E 443 591 116
E 444 447 1
E 444 448 1
E 445 457 6
E 446 452 2
E 446 593 116
E 447 450 1
E 447 452 2
E 448 450 1
E 450 455 2
E 450 461 6
E 451 453 1
E 451 504 34
E 452 455 1
E 452 597 116
E 453 509 34
E 456 458 1
E 456 460 2
E 458 462 2
E 460 462 1
E 460 463 1
E 462 464 1
E 462 465 1
E 463 465 1
E 463 467 2
E 464 466 1
E 465 466 1
E 465 468 2
E 467 468 1
E 469 474 4
E 470 478 5
E 471 483 6
E 472 479 4
E 472 528 34
E 473 484 5
E 474 476 1
E 474 482 3
E 475 486 5
E 476 479 1
E 477 480 1
E 479 485 3
E 480 483 1
E 481 488 6
E 481 508 18
E 487 492 6
E 488 491 5
E 490 492 1
E 490 493 1
E 491 494 1
E 491 527 18
E 492 495 1
E 492 498 2
E 493 495 1
E 494 504 5
E 494 530 18
E 495 499 2
E 497 512 7
E 498 499 1
E 499 502 2
E 499 610 116
E 500 501 1
E 501 505 1
E 502 506 1
E 502 613 116
E 503 507 1
E 503 508 1
E 504 509 1
E 504 537 18
E 505 516 6
E 506 511 2
E 506 615 116
E 507 510 1
E 507 511 2
E 508 510 1
E 509 515 5
E 509 539 18
E 510 513 2
E 510 519 6
E 511 513 1
E 511 619 116
E 514 517 1
E 514 518 2
E 515 528 6
E 517 520 2
E 518 520 1
E 518 521 1
E 519 529 5
E 520 522 1
E 520 523 1
E 521 523 1
E 521 525 2
E 522 524 1
E 523 524 1
E 523 526 2
E 525 526 1
E 527 529 1
E 527 530 1
E 528 533 3
E 528 546 18
E 529 532 2
E 530 537 5
E 531 540 6
E 532 534 1
E 532 627 116
E 534 542 5
E 535 543 5
E 536 538 1
E 537 539 1
E 538 540 1
E 539 541 1
E 541 544 2
E 541 545 5
E 542 544 1
E 544 630 116
E 545 547 6
E 546 547 1
E 546 548 1
E 547 549 1
E 547 551 2
E 548 549 1
E 549 552 2
E 550 560 7
E 551 552 1
E 552 555 2
E 552 641 116
E 553 554 1
E 554 556 1
E 555 557 1
E 556 563 6
E 557 561 3
E 558 559 1
E 559 561 2
E 559 566 6
E 562 564 1
E 562 565 2
E 564 567 2
E 565 567 1
E 565 568 1
E 566 575 5
E 567 569 1
E 567 570 1
E 568 570 1
E 568 572 2
E 569 571 1
E 570 571 1
E 570 573 2
E 572 573 1
E 574 575 1
E 574 576 1
E 577 581 6
E 578 582 5
E 579 580 1
E 580 581 1
E 583 587 7
E 584 585 1
E 585 586 1
E 586 589 6
E 588 590 1
E 588 591 2
E 590 592 2
E 591 592 1
E 591 593 1
E 592 594 1
E 592 595 1
E 593 595 1
E 593 597 2
E 594 596 1
E 595 596 1
E 595 598 2
E 597 598 1
E 599 603 6
E 600 604 5
E 601 602 1
E 602 603 1
E 605 609 7
E 606 607 1
E 607 608 1
E 608 611 6
E 610 612 1
E 610 613 2
E 612 614 2
E 613 614 1
E 613 615 1
E 614 616 1
E 614 617 1
E 615 617 1
E 615 619 2
E 616 618 1
E 617 618 1
E 617 620 2
E 619 620 1
E 621 625 6
E 622 626 5
E 623 624 1
E 623 627 5
E 624 625 1
E 624 628 5
E 625 629 5
E 627 628 1
E 628 629 1
E 629 645 28
E 630 631 1
E 630 634 5
E 631 632 1
E 631 635 5
E 632 636 5
E 632 649 28
E 633 640 7
E 634 635 1
E 634 637 2
E 635 636 1
E 635 638 2
E 636 639 2
E 637 638 1
E 638 639 1
E 639 642 4
E 641 643 1
E 642 651 28
E 644 647 5
E 645 646 1
E 645 650 16
E 646 648 5
E 648 649 1
E 648 653 16
E 649 654 16
E 650 653 6
E 651 652 1
E 653 654 1
E 654 655 7
E 1 656 1000000
E 2 656 1000000
E 3 656 1000000
E 4 656 1000000
E 5 656 1000000
E 6 657 1000000
E 7 657 1000000
E 8 657 1000000
E 9 657 1000000
E 10 658 1000000
E 11 658 1000000
E 12 659 1000000
E 13 659 1000000
E 14 659 1000000
E 15 659 1000000
E 16 659 1000000
E 17 660 1000000
E 18 660 1000000
E 19 661 1000000
E 20 661 1000000
E 21 662 1000000
E 22 662 1000000
E 23 663 1000000
E 24 663 1000000
E 25 664 1000000
E 26 664 1000000
E 27 664 1000000
E 28 664 1000000
E 29 665 1000000
E 30 665 1000000
E 31 666 1000000
E 32 666 1000000
E 33 667 1000000
E 34 667 1000000
E 35 668 1000000
E 36 668 1000000
E 37 668 1000000
E 38 668 1000000
E 39 668 1000000
E 40 669 1000000
E 41 669 1000000
E 42 670 1000000
E 43 670 1000000
E 44 670 1000000
E 45 670 1000000
E 46 671 1000000
E 47 671 1000000
E 48 671 1000000
E 49 671 1000000
E 50 671 1000000
E 51 672 1000000
E 52 672 1000000
E 53 673 1000000
E 54 673 1000000
E 55 674 1000000
E 56 674 1000000
E 57 675 1000000
E 58 675 1000000
E 59 676 1000000
E 60 676 1000000
E 61 676 1000000
E 62 676 1000000
E 63 677 1000000
E 64 677 1000000
E 65 678 1000000
E 66 678 1000000
E 67 679 1000000
E 68 679 1000000
E 69 680 1000000
E 70 680 1000000
E 71 680 1000000
E 72 680 1000000
E 73 680 1000000
E 74 681 1000000
E 75 681 1000000
E 76 682 1000000
E 77 682 1000000
E 78 682 1000000
E 79 682 1000000
E 80 683 1000000
E 81 683 1000000
E 82 683 1000000
E 83 683 1000000
E 84 683 1000000
E 85 684 1000000
E 86 684 1000000
E 87 685 1000000
E 88 685 1000000
E 89 686 1000000
E 90 686 1000000
E 91 687 1000000
E 92 687 1000000
E 93 688 1000000
E 94 688 1000000
E 95 688 1000000
E 96 688 1000000
E 97 689 1000000
E 98 689 1000000
E 99 690 1000000
E 100 690 1000000
E 101 691 1000000
E 102 691 1000000
E 103 692 1000000
E 104 692 1000000
E 105 692 1000000
E 106 692 1000000
E 107 692 1000000
E 108 693 1000000
E 109 693 1000000
E 110 694 1000000
E 111 694 1000000
E 112 694 1000000
E 113 694 1000000
E 114 695 1000000
E 115 695 1000000
E 116 695 1000000
E 117 695 1000000
E 118 695 1000000
E 119 696 1000000
E 120 696 1000000
E 121 697 1000000
E 122 697 1000000
E 123 698 1000000
E 124 698 1000000
E 125 699 1000000
E 126 699 1000000
E 127 700 1000000
E 128 700 1000000
E 129 700 1000000
E 130 700 1000000
E 131 701 1000000
E 132 701 1000000
E 133 702 1000000
E 134 702 1000000
E 135 703 1000000
E 136 703 1000000
E 137 704 1000000
E 138 704 1000000
E 139 704 1000000
E 140 704 1000000
E 141 704 1000000
E 142 705 1000000
E 143 705 1000000
E 144 706 1000000
E 145 706 1000000
E 146 706 1000000
E 147 706 1000000
E 148 707 1000000
E 149 707 1000000
E 150 707 1000000
E 151 707 1000000
E 152 707 1000000
E 153 708 1000000
E 154 708 1000000
E 155 709 1000000
E 156 709 1000000
E 157 710 1000000
E 158 710 1000000
E 159 711 1000000
E 160 711 1000000
E 161 712 1000000
E 162 712 1000000
E 163 712 1000000
E 164 712 1000000
E 165 713 1000000
E 166 713 1000000
E 167 714 1000000
E 168 714 1000000
E 169 715 1000000
E 170 715 1000000
E 171 716 1000000
E 172 716 1000000
E 173 716 1000000
E 174 716 1000000
E 175 716 1000000
E 176 717 1000000
E 177 717 1000000
E 178 718 1000000
E 179 718 1000000
E 180 718 1000000
E 181 718 1000000
E 182 719 1000000
E 183 719 1000000
E 184 719 1000000
E 185 719 1000000
E 186 719 1000000
E 187 720 1000000
E 188 720 1000000
E 189 721 1000000
E 190 721 1000000
E 191 722 1000000
E 192 722 1000000
E 193 723 1000000
E 194 723 1000000
E 195 724 1000000
E 196 724 1000000
E 197 724 1000000
E 198 724 1000000
E 199 725 1000000
E 200 725 1000000
E 201 726 1000000
E 202 726 1000000
E 203 727 1000000
E 204 727 1000000
E 205 728 1000000
E 206 728 1000000
E 207 728 1000000
E 208 728 1000000
E 209 728 1000000
E 210 729 1000000
E 211 729 1000000
E 212 730 1000000
E 213 730 1000000
E 214 730 1000000
E 215 730 1000000
E 216 731 1000000
E 217 731 1000000
E 218 731 1000000
E 219 731 1000000
E 220 731 1000000
E 221 732 1000000
E 222 732 1000000
E 223 733 1000000
E 224 733 1000000
E 225 734 1000000
E 226 734 1000000
E 227 735 1000000
E 228 735 1000000
E 229 736 1000000
E 230 736 1000000
E 231 736 1000000
E 232 736 1000000
E 233 737 1000000
E 234 737 1000000
E 235 738 1000000
E 236 738 1000000
E 237 739 1000000
E 238 739 1000000
E 239 740 1000000
E 240 740 1000000
E 241 740 1000000
E 242 740 1000000
E 243 741 1000000
E 244 741 1000000
E 245 742 1000000
E 246 742 1000000
E 247 742 1000000
E 248 742 1000000
E 249 743 1000000
E 250 658 1000000
E 251 658 1000000
E 252 658 1000000
E 253 658 1000000
END

SECTION Terminals
Terminals 88
T 656
T 657
T 658
T 659
T 660
T 661
T 662
T 663
T 664
T 665
T 666
T 667
T 668
T 669
T 670
T 671
T 672
T 673
T 674
T 675
T 676
T 677
T 678
T 679
T 680
T 681
T 682
T 683
T 684
T 685
T 686
T 687
T 688
T 689
T 690
T 691
T 692
T 693
T 694
T 695
T 696
T 697
T 698
T 699
T 700
T 701
T 702
T 703
T 704
T 705
T 706
T 707
T 708
T 709
T 710
T 711
T 712
T 713
T 714
T 715
T 716
T 717
T 718
T 719
T 720
T 721
T 722
T 723
T 724
T 725
T 726
T 727
T 728
T 729
T 730
T 731
T 732
T 733
T 734
T 735
T 736
T 737
T 738
T 739
T 740
T 741
T 742
T 743
END

EOF
